certificates/rado_a7_c129_N20.cnf
c Rad2 upper bound instance: x1 + 7*x2 - x3 = 129, interval [1,20]
p cnf 20 110
1 5 19 0
-1 -5 -19 0
1 12 20 0
-1 -12 -20 0
2 6 19 0
-2 -6 -19 0
2 13 20 0
-2 -13 -20 0
3 7 19 0
-3 -7 -19 0
3 14 20 0
-3 -14 -20 0
1 4 18 0
-1 -4 -18 0
4 8 19 0
-4 -8 -19 0
4 15 20 0
-4 -15 -20 0
2 5 18 0
-2 -5 -18 0
5 9 19 0
-5 -9 -19 0
5 16 20 0
-5 -16 -20 0
3 6 18 0
-3 -6 -18 0
6 10 19 0
-6 -10 -19 0
6 17 20 0
-6 -17 -20 0
4 7 18 0
-4 -7 -18 0
7 11 19 0
-7 -11 -19 0
7 18 20 0
-7 -18 -20 0
5 8 18 0
-5 -8 -18 0
8 12 19 0
-8 -12 -19 0
8 19 20 0
-8 -19 -20 0
6 9 18 0
-6 -9 -18 0
9 13 19 0
-9 -13 -19 0
9 20 0
-9 -20 0
7 10 18 0
-7 -10 -18 0
10 14 19 0
-10 -14 -19 0
1 11 17 0
-1 -11 -17 0
8 11 18 0
-8 -11 -18 0
11 15 19 0
-11 -15 -19 0
2 12 17 0
-2 -12 -17 0
9 12 18 0
-9 -12 -18 0
12 16 19 0
-12 -16 -19 0
3 13 17 0
-3 -13 -17 0
10 13 18 0
-10 -13 -18 0
13 17 19 0
-13 -17 -19 0
4 14 17 0
-4 -14 -17 0
11 14 18 0
-11 -14 -18 0
14 18 19 0
-14 -18 -19 0
5 15 17 0
-5 -15 -17 0
12 15 18 0
-12 -15 -18 0
15 19 0
-15 -19 0
6 16 17 0
-6 -16 -17 0
13 16 18 0
-13 -16 -18 0
16 19 20 0
-16 -19 -20 0
7 17 0
-7 -17 0
14 17 18 0
-14 -17 -18 0
1 16 18 0
-1 -16 -18 0
8 17 18 0
-8 -17 -18 0
15 18 0
-15 -18 0
2 16 19 0
-2 -16 -19 0
9 17 19 0
-9 -17 -19 0
16 18 19 0
-16 -18 -19 0
3 16 20 0
-3 -16 -20 0
10 17 20 0
-10 -17 -20 0
17 18 20 0
-17 -18 -20 0
