certificates/rado_a7_c129_N20.drat
-18 -20 0
d -7 -18 -20 0
-20 0
9 0
18 0
-15 0
-6 0
-12 0
4 0
19 0
17 0
1 0
0
